decision_x1=[0,2];
decision_x2=[0,2];
decision_x3=[0,2];
decision_x4=[0,2];
decision_x5=[0,2];
decision_x6=[0,2];
decision_x7=[0,2];
decision_x8=[0,2];
decision_x9=[0,2];
decision_x10=[0,2];
random_y1=[0,2];
random_y2=[0,2];
constraint_x3_x1=[
0,0,3.7|
0,1,3.7|
0,2,1.4|
1,0,9.1|
1,1,0.46|
1,2,7|
2,0,5|
2,1,7.8|
2,2,9.1|
];
constraint_x3_x2=[
0,0,3.3|
0,1,8.5|
0,2,2.9|
1,0,6.5|
1,1,5.1|
1,2,1.6|
2,0,8.4|
2,1,2.1|
2,2,5.3|
];
constraint_x4_x1=[
0,0,7.1|
0,1,6.7|
0,2,3.6|
1,0,1.1|
1,1,0.35|
1,2,7.1|
2,0,1.2|
2,1,6.7|
2,2,4|
];
constraint_x4_x3=[
0,0,9|
0,1,1.3|
0,2,1.2|
1,0,0.74|
1,1,4.1|
1,2,1.8|
2,0,5.3|
2,1,5.9|
2,2,4|
];
constraint_x5_x3=[
0,0,6|
0,1,4.8|
0,2,3.9|
1,0,1.8|
1,1,3|
1,2,5.2|
2,0,3.7|
2,1,1.4|
2,2,9.4|
];
constraint_x6_x2=[
0,0,9.1|
0,1,7.4|
0,2,0.3|
1,0,7.2|
1,1,7.7|
1,2,6.7|
2,0,1.2|
2,1,0.75|
2,2,4.9|
];
constraint_x6_x5=[
0,0,0.81|
0,1,8.7|
0,2,7.1|
1,0,9.5|
1,1,4.3|
1,2,6.8|
2,0,6.3|
2,1,3.8|
2,2,4.2|
];
constraint_x7_x1=[
0,0,0.025|
0,1,3.5|
0,2,3.2|
1,0,4.9|
1,1,3.1|
1,2,3.5|
2,0,0.54|
2,1,2.1|
2,2,2.7|
];
constraint_x7_x3=[
0,0,0.27|
0,1,4.8|
0,2,6.5|
1,0,2.3|
1,1,5.8|
1,2,4.7|
2,0,9.4|
2,1,4.4|
2,2,3.4|
];
constraint_x8_x1=[
0,0,6.2|
0,1,8|
0,2,5.8|
1,0,8.8|
1,1,7.4|
1,2,7.1|
2,0,4.5|
2,1,6.3|
2,2,9.2|
];
constraint_x8_x2=[
0,0,1.3|
0,1,2.3|
0,2,3.6|
1,0,6.3|
1,1,3.8|
1,2,8.7|
2,0,2.5|
2,1,1.2|
2,2,0.17|
];
constraint_x8_x3=[
0,0,4.8|
0,1,9.5|
0,2,3.5|
1,0,0.28|
1,1,5.3|
1,2,0.56|
2,0,1.2|
2,1,2.6|
2,2,9.6|
];
constraint_x8_x7=[
0,0,8.6|
0,1,3|
0,2,4.1|
1,0,4.9|
1,1,4.7|
1,2,2.1|
2,0,4.6|
2,1,5.2|
2,2,5.6|
];
constraint_x9_x2=[
0,0,0.87|
0,1,4.6|
0,2,6.5|
1,0,9.8|
1,1,0.28|
1,2,9.9|
2,0,6.4|
2,1,3.7|
2,2,5.9|
];
constraint_x9_x3=[
0,0,4|
0,1,4|
0,2,6.6|
1,0,9.9|
1,1,0.87|
1,2,2.3|
2,0,2.3|
2,1,6.5|
2,2,0.39|
];
constraint_x9_x4=[
0,0,4.9|
0,1,6.4|
0,2,9.3|
1,0,1.8|
1,1,1.4|
1,2,5|
2,0,5.2|
2,1,8.9|
2,2,7.5|
];
constraint_x9_x5=[
0,0,5.9|
0,1,4.3|
0,2,0.38|
1,0,2.9|
1,1,8.2|
1,2,4.5|
2,0,1.5|
2,1,8.6|
2,2,2.9|
];
constraint_x9_x8=[
0,0,8|
0,1,2.3|
0,2,9.4|
1,0,4.9|
1,1,2.5|
1,2,6.3|
2,0,9.8|
2,1,9.2|
2,2,5.6|
];
constraint_x10_x1=[
0,0,6.3|
0,1,5.3|
0,2,3.1|
1,0,3.2|
1,1,2.5|
1,2,4.2|
2,0,9.2|
2,1,2|
2,2,7.1|
];
constraint_x10_x2=[
0,0,6|
0,1,9.2|
0,2,6.8|
1,0,3.7|
1,1,6.2|
1,2,4.3|
2,0,6.4|
2,1,0.49|
2,2,6.7|
];
constraint_x10_x4=[
0,0,1.9|
0,1,2.7|
0,2,10|
1,0,7.3|
1,1,8.9|
1,2,9.4|
2,0,6|
2,1,7.7|
2,2,8.6|
];
constraint_x10_x5=[
0,0,2|
0,1,4.5|
0,2,8.1|
1,0,5.7|
1,1,0.13|
1,2,1.2|
2,0,4|
2,1,4.5|
2,2,6|
];
constraint_x10_x8=[
0,0,3|
0,1,4|
0,2,4.5|
1,0,6.4|
1,1,0.44|
1,2,2|
2,0,3.1|
2,1,0.48|
2,2,6.6|
];
constraint_x1_y1=[
0,0,7.4|
0,1,6.3|
0,2,8.5|
1,0,4|
1,1,1.6|
1,2,5.8|
2,0,4.5|
2,1,4.3|
2,2,2.2|
];
constraint_x2_y2=[
0,0,6.6|
0,1,0.34|
0,2,4.5|
1,0,7|
1,1,0.046|
1,2,7.7|
2,0,1|
2,1,6.7|
2,2,7.6|
];
initial_distribution_y1=[0.68,0.2,0.12];
initial_distribution_y2=[0.37,0.57,0.064];
transition_y1=[
0.42,0.25,0.34|
0.16,0.36,0.49|
0.3,0.45,0.25|
];
transition_y2=[
0.41,0.031,0.56|
0.49,0.47,0.045|
0.052,0.41,0.54|
];
